10
20
246535
0
0
45 324 77 95 35 22 97 80 40 36 57 217 47 65 9 44 1 119 17 22
1
0
26 315 66 64 67 8 109 73 26 20 68 208 27 57 5 41 2 106 19 34
2
0
35 268 51 68 49 15 87 106 34 21 62 173 27 61 7 41 3 111 14 17
3
0
44 252 57 87 38 14 60 76 28 20 58 226 34 80 7 63 1 83 18 31
4
0
26 254 53 54 51 14 91 85 22 16 56 200 34 66 5 42 1 101 15 28
5
0
38 295 65 81 46 15 109 103 31 24 55 226 29 72 6 25 1 110 26 27
6
0
45 282 60 84 54 15 109 80 20 28 66 241 50 78 14 43 2 111 21 19
7
0
33 268 70 52 66 13 113 94 28 32 58 190 23 54 11 41 3 99 17 21
8
0
38 265 79 73 48 13 121 111 20 27 75 240 39 59 8 45 1 82 26 34
9
0
38 302 69 64 44 21 96 105 34 24 61 156 40 65 12 54 2 112 23 21
